r = [
0,63,138,108,71,162,48,48,168,5,134,145,13,107,81,6,167,148,115,44,167,34,123,53,32,177,0
];
p = [
0,17,23,21,7,12,8,16,30,6,2,16,24,4,2,3,26,30,11,11,18,25,8,10,14,23,0
];
e = [
0,14,2,17,18,18,4,11,18,1,17,9,18,9,8,8,4,13,15,4,16,6,15,11,17,3,0
];
d = [
0,89,338,341,370,210,106,195,219,120,465,404,325,187,329,146,350,395,205,263,478,91,404,277,176,224,494
];
d_bar = [
0,104,359,360,376,221,113,209,246,125,467,418,347,191,331,149,373,422,215,273,494,114,411,286,189,245,494
];
w = [
0,0.933333333,0.095238095,0.894736842,3,1.636363636,0.571428571,0.785714286,0.666666667,0.2,8.5,0.642857143,0.818181818,2.25,4,2.666666667,0.173913043,0.481481481,1.5,0.4,1,0.260869565,2.142857143,1.222222222,1.307692308,0.142857143,0
];
